HUN,8,6,162
2,14,1,3,0,3,5,5,3,19,4,19
1,21,0,18,2,4,5,20,4,5,3,1
1,28,0,8,2,21,5,28,4,11,3,1
0,23,1,30,2,11,5,10,4,30,3,23
0,3,1,18,2,15,5,7,3,25,4,16
1,5,2,20,0,10,5,9,4,7,3,10
2,4,1,23,0,5,5,15,4,20,3,5
0,19,2,5,1,15,5,29,4,26,3,20
